param n := 2;

param m := 2;

param K := 20;

param a :=
1 	 0.102334
2 	 0.414056
;
 param A :=
[1, *, *]:  1	2	:=
1	0.388800	-0.900093	
2	-0.171641	0.071793	

[2, *, *]:  1	2	:=
1	0.327589	0.889190	
2	0.029778	0.173110	
;